100 10
1
85 54 84 19 91 77 77 72 46 82 34 1 66 3 84 0 88 41 84 53 21 74 38 64 49 69 44 54 53 9 74 97 30 55 28 18 32 21 36 27 99 31 13 34 85 13 64 60 64 39 0 65 87 26 23 33 84 75 24 12 97 48 93 27 19 43 19 88 89 41 67 92 30 52 41 47 85 35 23 4 63 13 12 91 33 37 6 70 39 6 75 59 16 94 1 97 17 57 64 3
623 750 520 330 529 739 539 663 684 592
22 0 0 0 0 72 0 0 0 0 0 0 0 0 0 0 0 0 0 0 0 0 0 0 0 0 0 0 0 93 0 0 0 0 0 0 69 0 0 0 0 0 0 0 0 18 0 0 0 0 0 0 0 0 0 82 93 79 0 20 0 0 0 0 0 0 0 57 21 0 0 0 83 4 0 34 76 0 0 0 85 0 51 0 0 23 0 0 0 0 0 0 0 0 0 0 0 59 57 0
0 0 76 19 0 82 8 0 41 0 0 0 58 0 0 0 0 0 0 0 23 19 0 0 0 0 0 59 0 0 0 0 0 0 0 78 79 0 0 0 97 0 95 0 0 0 54 0 0 99 0 0 0 0 0 0 66 0 0 0 0 0 0 0 0 35 42 0 0 0 0 0 0 0 81 82 65 0 0 0 0 0 0 19 41 0 0 0 0 0 0 0 0 0 0 0 0 0 0 0
0 0 0 0 0 0 0 0 0 0 70 0 29 47 0 0 0 0 0 0 0 0 0 0 0 0 0 0 0 0 46 0 0 0 0 0 0 0 0 63 0 0 0 0 75 0 0 0 46 0 0 0 0 0 0 0 37 0 0 83 0 0 95 0 0 0 0 0 0 0 0 0 0 0 0 0 8 14 0 0 0 0 0 0 0 0 0 0 0 98 0 0 0 0 88 0 0 91 0 0
0 0 0 0 91 0 12 0 5 0 0 0 0 0 0 0 0 0 0 0 0 0 0 0 0 0 45 0 0 0 0 73 83 0 0 0 0 0 0 0 0 0 0 22 0 0 0 0 41 50 0 0 0 0 0 0 0 0 0 0 0 0 0 0 0 0 0 0 0 0 32 0 0 0 0 0 0 0 0 0 0 0 37 0 0 0 0 17 0 0 0 0 0 31 0 0 0 0 0 0
0 0 0 33 0 0 0 0 0 0 0 0 93 0 0 0 0 0 0 0 0 0 77 0 0 0 0 0 0 0 0 0 41 0 0 0 6 0 0 0 2 0 2 3 0 10 0 23 0 0 0 0 0 28 0 0 82 66 32 0 75 0 0 0 0 0 0 29 0 0 0 86 0 0 0 0 61 0 75 0 44 0 0 0 0 0 0 0 0 0 12 40 0 0 0 0 0 0 0 0
0 0 0 0 0 0 0 26 0 0 0 0 67 75 0 0 0 0 0 88 0 0 0 0 25 52 0 0 0 0 0 0 90 0 0 0 0 0 80 0 49 97 0 0 0 0 0 0 72 0 0 0 0 0 2 51 0 0 50 0 0 0 0 90 0 71 0 0 0 0 0 0 34 0 13 0 0 0 49 0 74 0 0 0 0 46 0 23 25 0 0 0 0 0 3 57 0 0 0 0
0 0 98 0 74 28 0 0 86 54 0 0 0 0 0 0 0 0 0 0 0 0 0 0 0 0 0 0 0 82 0 96 74 26 0 0 26 0 0 0 8 0 0 0 8 0 92 0 0 0 43 0 0 0 0 0 0 0 0 0 0 0 0 0 0 0 0 0 0 0 0 0 0 54 83 0 10 0 0 0 0 0 0 0 0 0 0 0 0 0 0 0 0 0 0 0 0 5 0 0
0 0 0 0 83 0 0 0 0 61 0 0 0 0 0 0 0 0 62 0 74 0 0 0 0 0 0 0 57 0 0 0 0 0 0 0 47 0 0 0 0 0 0 0 0 0 0 39 52 0 0 0 34 0 0 0 0 0 41 0 97 0 0 0 61 33 0 0 0 55 0 0 0 0 0 0 66 0 0 0 34 0 30 0 0 0 0 0 18 89 0 0 0 0 0 0 0 0 55 65
59 0 0 0 0 0 0 0 63 0 0 0 0 1 6 0 26 0 0 0 0 63 0 94 0 0 0 0 0 64 0 0 0 0 87 0 0 0 0 0 0 0 0 0 0 0 0 48 0 43 0 0 15 92 10 0 0 0 79 0 0 0 94 0 13 0 0 0 0 0 50 0 0 0 0 59 0 0 0 0 0 0 0 69 0 0 61 0 0 0 0 49 0 1 0 0 20 0 0 0
0 35 0 0 64 99 0 0 0 0 0 0 0 0 0 0 0 0 0 0 0 90 0 0 0 0 0 0 0 4 0 18 0 0 0 86 0 0 0 0 0 0 0 0 0 0 0 0 0 0 92 0 0 53 0 0 0 0 0 0 6 63 0 0 54 0 0 80 31 0 91 0 0 0 0 37 95 0 0 0 0 0 0 0 0 0 0 0 0 0 0 0 0 36 0 0 0 0 0 0
16 0 0 0 0 1 0 0 0 0 0 0 0 0 0 0 0 0 0 0 0 0 0 0 0 0 0 0 0 28 0 0 0 0 0 0 48 0 0 0 0 0 0 0 0 16 0 0 0 0 0 0 0 0 0 45 23 33 0 15 0 0 0 0 0 0 0 11 9 0 0 0 73 0 0 31 21 0 0 0 76 0 36 0 0 14 0 0 0 0 0 0 0 0 0 0 0 26 11 0
0 0 12 12 0 65 7 0 22 0 0 0 23 0 0 0 0 0 0 0 21 8 0 0 0 0 0 17 0 0 0 0 0 0 0 29 68 0 0 0 89 0 28 0 0 0 39 0 0 55 0 0 0 0 0 0 57 0 0 0 0 0 0 0 0 21 23 0 0 0 0 0 0 0 27 44 10 0 0 0 0 0 0 2 34 0 0 0 0 0 0 0 0 0 0 0 0 0 0 0
0 0 0 0 0 0 0 0 0 0 54 0 7 6 0 0 0 0 0 0 0 0 0 0 0 0 0 0 0 0 28 0 0 0 0 0 0 0 0 43 0 0 0 0 37 0 0 0 36 0 0 0 0 0 0 0 16 0 0 4 0 0 87 0 0 0 0 0 0 0 0 0 0 0 0 0 0 11 0 0 0 0 0 0 0 0 0 0 0 58 0 0 0 0 9 0 0 56 0 0
0 0 0 0 78 0 2 0 3 0 0 0 0 0 0 0 0 0 0 0 0 0 0 0 0 0 25 0 0 0 0 72 25 0 0 0 0 0 0 0 0 0 0 7 0 0 0 0 3 40 0 0 0 0 0 0 0 0 0 0 0 0 0 0 0 0 0 0 0 0 7 0 0 0 0 0 0 0 0 0 0 0 25 0 0 0 0 1 0 0 0 0 0 13 0 0 0 0 0 0
0 0 0 32 0 0 0 0 0 0 0 0 53 0 0 0 0 0 0 0 0 0 30 0 0 0 0 0 0 0 0 0 15 0 0 0 1 0 0 0 0 0 1 2 0 6 0 3 0 0 0 0 0 4 0 0 67 16 1 0 58 0 0 0 0 0 0 13 0 0 0 48 0 0 0 0 4 0 43 0 39 0 0 0 0 0 0 0 0 0 11 18 0 0 0 0 0 0 0 0
0 0 0 0 0 0 0 25 0 0 0 0 32 72 0 0 0 0 0 65 0 0 0 0 20 51 0 0 0 0 0 0 81 0 0 0 0 0 41 0 6 32 0 0 0 0 0 0 41 0 0 0 0 0 1 41 0 0 1 0 0 0 0 4 0 9 0 0 0 0 0 0 25 0 11 0 0 0 28 0 4 0 0 0 0 7 0 9 23 0 0 0 0 0 2 11 0 0 0 0
0 0 1 0 62 15 0 0 32 30 0 0 0 0 0 0 0 0 0 0 0 0 0 0 0 0 0 0 0 40 0 49 66 23 0 0 5 0 0 0 5 0 0 0 4 0 32 0 0 0 6 0 0 0 0 0 0 0 0 0 0 0 0 0 0 0 0 0 0 0 0 0 0 21 34 0 1 0 0 0 0 0 0 0 0 0 0 0 0 0 0 0 0 0 0 0 0 4 0 0
0 0 0 0 67 0 0 0 0 3 0 0 0 0 0 0 0 0 57 0 43 0 0 0 0 0 0 0 36 0 0 0 0 0 0 0 43 0 0 0 0 0 0 0 0 0 0 10 48 0 0 0 31 0 0 0 0 0 5 0 33 0 0 0 48 21 0 0 0 11 0 0 0 0 0 0 49 0 0 0 33 0 7 0 0 0 0 0 11 53 0 0 0 0 0 0 0 0 42 46
49 0 0 0 0 0 0 0 52 0 0 0 0 0 5 0 24 0 0 0 0 8 0 78 0 0 0 0 0 52 0 0 0 0 67 0 0 0 0 0 0 0 0 0 0 0 0 10 0 32 0 0 14 84 2 0 0 0 25 0 0 0 0 0 11 0 0 0 0 0 37 0 0 0 0 49 0 0 0 0 0 0 0 63 0 0 59 0 0 0 0 43 0 0 0 0 12 0 0 0
0 11 0 0 29 13 0 0 0 0 0 0 0 0 0 0 0 0 0 0 0 28 0 0 0 0 0 0 0 0 0 9 0 0 0 38 0 0 0 0 0 0 0 0 0 0 0 0 0 0 70 0 0 47 0 0 0 0 0 0 2 15 0 0 6 0 0 46 19 0 38 0 0 0 0 35 81 0 0 0 0 0 0 0 0 0 0 0 0 0 0 0 0 21 0 0 0 0 0 0
